p cnf 20 15
7 18 -1 -5 -4 12 13 -3 -2 10 0
9 6 15 13 5 11 4 -18 1 -14 0
-10 4 -3 -2 -9 -14 -11 18 8 -16 0
-11 -17 -13 -2 20 7 14 18 8 12 0
4 -3 13 20 -11 6 17 10 -18 -8 0
1 -19 18 6 -11 -5 -8 -17 2 3 0
5 -6 16 1 -2 -17 -8 10 -20 -13 0
-9 3 5 -6 13 18 10 -17 4 8 0
-19 20 -8 -1 -6 -7 9 12 -10 14 0
11 -9 4 13 1 -3 -12 -10 6 -15 0
2 -5 1 10 13 18 3 14 16 -7 0
17 -9 -4 -2 18 6 10 -11 -7 12 0
2 -16 -10 4 19 -13 5 -1 -17 -20 0
5 10 -6 16 -14 19 17 -18 12 2 0
-14 -9 -10 -12 1 7 2 4 -16 5 0
